Instance Name : rc105
Date : 2022-07-18
Solution
Route 1 : 69 88 79 7 46 4 3 1 100
Route 2 : 65 52 86 87 59 97 75 58
Route 3 : 51 76 89 85 91
Route 4 : 95 33 63 84 56 66
Route 5 : 2 45 5 8 6 55 68
Route 6 : 39 36 44 38 40 37 35 43 70
Route 7 : 82 12 14 11 78 73 60
Route 8 : 42 61 81 41 72 54
Route 9 : 19 23 18 22 49 48 21 25 24
Route 10 : 31 29 27 30 28 26 32 34 50 80
Route 11 : 98 47 16 15 9 74
Route 12 : 90 53 10 13 17
Route 13 : 64 83 99 57 20 77
Route 14 : 92 62 67 71 94 93 96
